p cnf 253 326
-1 192 -2 8 49 79 228 -230 -231 -232 -233 -235 -236 -237 -240 -241 -244 -245 -246 -247 -248 -249 -250 -252 -253 0 
-3 14 70 228 -230 -231 -232 -233 -235 -236 -237 -240 -241 -244 -245 -246 -247 -248 -249 -250 -252 -253 0 
-3 14 70 229 -242 -243 -251 0 
-1 192 -3 14 70 228 -230 -231 -232 -233 -235 -236 -237 -240 -241 -244 -245 -246 -247 -248 -249 -250 -252 -253 0 
-4 77 159 187 -5 228 -230 -231 -232 -233 -235 -236 -237 -240 -241 -244 -245 -246 -247 -248 -249 -250 -252 -253 0 
-6 -7 228 -230 -231 -232 -233 -235 -236 -237 -240 -241 -244 -245 -246 -247 -248 -249 -250 -252 -253 0 
-8 2 49 79 228 -230 -231 -232 -233 -235 -236 -237 -240 -241 -244 -245 -246 -247 -248 -249 -250 -252 -253 0 
-9 11 12 62 76 165 199 228 -230 -231 -232 -233 -235 -236 -237 -240 -241 -244 -245 -246 -247 -248 -249 -250 -252 -253 0 
-10 39 43 113 150 228 -230 -231 -232 -233 -235 -236 -237 -240 -241 -244 -245 -246 -247 -248 -249 -250 -252 -253 0 
-11 9 12 62 76 165 199 228 -230 -231 -232 -233 -235 -236 -237 -240 -241 -244 -245 -246 -247 -248 -249 -250 -252 -253 0 
-12 9 11 62 76 165 199 228 -230 -231 -232 -233 -235 -236 -237 -240 -241 -244 -245 -246 -247 -248 -249 -250 -252 -253 0 
-13 182 -14 3 70 -15 228 -230 -231 -232 -233 -235 -236 -237 -240 -241 -244 -245 -246 -247 -248 -249 -250 -252 -253 0 
-3 14 70 -16 71 108 146 147 148 203 209 226 228 -230 -231 -232 -233 -235 -236 -237 -240 -241 -244 -245 -246 -247 -248 -249 -250 -252 -253 0 
-3 14 70 230 -228 -231 -232 -233 -235 -236 -237 -240 -241 -244 -245 -246 -247 -248 -249 -250 -252 -253 0 
-3 14 70 231 -228 -230 -232 -233 -235 -236 -237 -240 -241 -244 -245 -246 -247 -248 -249 -250 -252 -253 0 
-17 20 59 -18 228 -230 -231 -232 -233 -235 -236 -237 -240 -241 -244 -245 -246 -247 -248 -249 -250 -252 -253 0 
-19 25 37 51 52 75 127 154 177 178 181 212 -3 14 70 228 -230 -231 -232 -233 -235 -236 -237 -240 -241 -244 -245 -246 -247 -248 -249 -250 -252 -253 0 
-20 17 59 -13 182 -21 50 97 135 136 138 228 -230 -231 -232 -233 -235 -236 -237 -240 -241 -244 -245 -246 -247 -248 -249 -250 -252 -253 0 
-22 -3 14 70 228 -230 -231 -232 -233 -235 -236 -237 -240 -241 -244 -245 -246 -247 -248 -249 -250 -252 -253 0 
-23 98 223 228 -230 -231 -232 -233 -235 -236 -237 -240 -241 -244 -245 -246 -247 -248 -249 -250 -252 -253 0 
-24 228 -230 -231 -232 -233 -235 -236 -237 -240 -241 -244 -245 -246 -247 -248 -249 -250 -252 -253 0 
-25 19 37 51 52 75 127 154 177 178 181 212 228 -230 -231 -232 -233 -235 -236 -237 -240 -241 -244 -245 -246 -247 -248 -249 -250 -252 -253 0 
-20 17 59 -26 30 74 -27 228 -230 -231 -232 -233 -235 -236 -237 -240 -241 -244 -245 -246 -247 -248 -249 -250 -252 -253 0 
-28 72 175 -29 123 -30 26 74 -31 228 -230 -231 -232 -233 -235 -236 -237 -240 -241 -244 -245 -246 -247 -248 -249 -250 -252 -253 0 
-2 8 49 79 -32 -3 14 70 228 -230 -231 -232 -233 -235 -236 -237 -240 -241 -244 -245 -246 -247 -248 -249 -250 -252 -253 0 
-33 -34 53 64 111 152 228 -230 -231 -232 -233 -235 -236 -237 -240 -241 -244 -245 -246 -247 -248 -249 -250 -252 -253 0 
-35 61 -6 -36 80 139 -26 30 74 228 -230 -231 -232 -233 -235 -236 -237 -240 -241 -244 -245 -246 -247 -248 -249 -250 -252 -253 0 
-37 19 25 51 52 75 127 154 177 178 181 212 228 -230 -231 -232 -233 -235 -236 -237 -240 -241 -244 -245 -246 -247 -248 -249 -250 -252 -253 0 
-38 228 -230 -231 -232 -233 -235 -236 -237 -240 -241 -244 -245 -246 -247 -248 -249 -250 -252 -253 0 
-39 10 43 113 150 -40 110 194 228 -230 -231 -232 -233 -235 -236 -237 -240 -241 -244 -245 -246 -247 -248 -249 -250 -252 -253 0 
-30 26 74 -13 182 -41 228 -230 -231 -232 -233 -235 -236 -237 -240 -241 -244 -245 -246 -247 -248 -249 -250 -252 -253 0 
-42 -6 -43 10 39 113 150 -44 60 95 101 130 205 228 -230 -231 -232 -233 -235 -236 -237 -240 -241 -244 -245 -246 -247 -248 -249 -250 -252 -253 0 
-20 17 59 228 -230 -231 -232 -233 -235 -236 -237 -240 -241 -244 -245 -246 -247 -248 -249 -250 -252 -253 0 
-24 -3 14 70 228 -230 -231 -232 -233 -235 -236 -237 -240 -241 -244 -245 -246 -247 -248 -249 -250 -252 -253 0 
-45 129 151 155 186 -3 14 70 228 -230 -231 -232 -233 -235 -236 -237 -240 -241 -244 -245 -246 -247 -248 -249 -250 -252 -253 0 
-46 78 83 86 131 228 -230 -231 -232 -233 -235 -236 -237 -240 -241 -244 -245 -246 -247 -248 -249 -250 -252 -253 0 
-42 -7 -47 104 112 140 217 228 -230 -231 -232 -233 -235 -236 -237 -240 -241 -244 -245 -246 -247 -248 -249 -250 -252 -253 0 
-48 216 -3 14 70 228 -230 -231 -232 -233 -235 -236 -237 -240 -241 -244 -245 -246 -247 -248 -249 -250 -252 -253 0 
-49 2 8 79 -50 21 97 135 136 138 228 -230 -231 -232 -233 -235 -236 -237 -240 -241 -244 -245 -246 -247 -248 -249 -250 -252 -253 0 
-51 19 25 37 52 75 127 154 177 178 181 212 228 -230 -231 -232 -233 -235 -236 -237 -240 -241 -244 -245 -246 -247 -248 -249 -250 -252 -253 0 
-49 2 8 79 228 -230 -231 -232 -233 -235 -236 -237 -240 -241 -244 -245 -246 -247 -248 -249 -250 -252 -253 0 
-13 182 228 -230 -231 -232 -233 -235 -236 -237 -240 -241 -244 -245 -246 -247 -248 -249 -250 -252 -253 0 
-52 19 25 37 51 75 127 154 177 178 181 212 -53 34 64 111 152 228 -230 -231 -232 -233 -235 -236 -237 -240 -241 -244 -245 -246 -247 -248 -249 -250 -252 -253 0 
-54 56 -55 164 198 228 -230 -231 -232 -233 -235 -236 -237 -240 -241 -244 -245 -246 -247 -248 -249 -250 -252 -253 0 
-56 54 -57 85 87 176 222 -58 232 -228 -230 -231 -233 -235 -236 -237 -240 -241 -244 -245 -246 -247 -248 -249 -250 -252 -253 0 
-42 -6 -59 17 20 -60 44 95 101 130 205 228 -230 -231 -232 -233 -235 -236 -237 -240 -241 -244 -245 -246 -247 -248 -249 -250 -252 -253 0 
-61 35 -42 -62 9 11 12 76 165 199 228 -230 -231 -232 -233 -235 -236 -237 -240 -241 -244 -245 -246 -247 -248 -249 -250 -252 -253 0 
-63 -64 34 53 111 152 228 -230 -231 -232 -233 -235 -236 -237 -240 -241 -244 -245 -246 -247 -248 -249 -250 -252 -253 0 
-65 125 -66 69 94 189 228 -230 -231 -232 -233 -235 -236 -237 -240 -241 -244 -245 -246 -247 -248 -249 -250 -252 -253 0 
-67 214 228 -230 -231 -232 -233 -235 -236 -237 -240 -241 -244 -245 -246 -247 -248 -249 -250 -252 -253 0 
-3 14 70 233 -228 -230 -231 -232 -235 -236 -237 -240 -241 -244 -245 -246 -247 -248 -249 -250 -252 -253 0 
-68 73 107 228 -230 -231 -232 -233 -235 -236 -237 -240 -241 -244 -245 -246 -247 -248 -249 -250 -252 -253 0 
-62 9 11 12 76 165 199 -69 66 94 189 228 -230 -231 -232 -233 -235 -236 -237 -240 -241 -244 -245 -246 -247 -248 -249 -250 -252 -253 0 
-31 -66 69 94 189 228 -230 -231 -232 -233 -235 -236 -237 -240 -241 -244 -245 -246 -247 -248 -249 -250 -252 -253 0 
-62 9 11 12 76 165 199 -70 3 14 -27 228 -230 -231 -232 -233 -235 -236 -237 -240 -241 -244 -245 -246 -247 -248 -249 -250 -252 -253 0 
-48 216 -69 66 94 189 234 -239 0 
-48 216 -3 14 70 -27 -71 16 108 146 147 148 203 209 226 235 -228 -230 -231 -232 -233 -236 -237 -240 -241 -244 -245 -246 -247 -248 -249 -250 -252 -253 0 
-31 228 -230 -231 -232 -233 -235 -236 -237 -240 -241 -244 -245 -246 -247 -248 -249 -250 -252 -253 0 
-72 28 175 -73 68 107 228 -230 -231 -232 -233 -235 -236 -237 -240 -241 -244 -245 -246 -247 -248 -249 -250 -252 -253 0 
-74 26 30 236 -228 -230 -231 -232 -233 -235 -237 -240 -241 -244 -245 -246 -247 -248 -249 -250 -252 -253 0 
-75 19 25 37 51 52 127 154 177 178 181 212 -48 216 228 -230 -231 -232 -233 -235 -236 -237 -240 -241 -244 -245 -246 -247 -248 -249 -250 -252 -253 0 
-76 9 11 12 62 165 199 -77 4 159 187 237 -228 -230 -231 -232 -233 -235 -236 -240 -241 -244 -245 -246 -247 -248 -249 -250 -252 -253 0 
-66 69 94 189 228 -230 -231 -232 -233 -235 -236 -237 -240 -241 -244 -245 -246 -247 -248 -249 -250 -252 -253 0 
-3 14 70 238 239 -234 0 
-78 46 83 86 131 228 -230 -231 -232 -233 -235 -236 -237 -240 -241 -244 -245 -246 -247 -248 -249 -250 -252 -253 0 
-31 -79 2 8 49 228 -230 -231 -232 -233 -235 -236 -237 -240 -241 -244 -245 -246 -247 -248 -249 -250 -252 -253 0 
-35 61 -80 36 139 -81 84 161 168 211 228 -230 -231 -232 -233 -235 -236 -237 -240 -241 -244 -245 -246 -247 -248 -249 -250 -252 -253 0 
-82 -26 30 74 -13 182 228 -230 -231 -232 -233 -235 -236 -237 -240 -241 -244 -245 -246 -247 -248 -249 -250 -252 -253 0 
-35 61 -83 46 78 86 131 -84 81 161 168 211 228 -230 -231 -232 -233 -235 -236 -237 -240 -241 -244 -245 -246 -247 -248 -249 -250 -252 -253 0 
-85 57 87 176 222 228 -230 -231 -232 -233 -235 -236 -237 -240 -241 -244 -245 -246 -247 -248 -249 -250 -252 -253 0 
-20 17 59 -75 19 25 37 51 52 127 154 177 178 181 212 -83 46 78 86 131 228 -230 -231 -232 -233 -235 -236 -237 -240 -241 -244 -245 -246 -247 -248 -249 -250 -252 -253 0 
-35 61 -86 46 78 83 131 -81 84 161 168 211 228 -230 -231 -232 -233 -235 -236 -237 -240 -241 -244 -245 -246 -247 -248 -249 -250 -252 -253 0 
-62 9 11 12 76 165 199 -87 57 85 176 222 228 -230 -231 -232 -233 -235 -236 -237 -240 -241 -244 -245 -246 -247 -248 -249 -250 -252 -253 0 
-48 216 -88 240 -228 -230 -231 -232 -233 -235 -236 -237 -241 -244 -245 -246 -247 -248 -249 -250 -252 -253 0 
-61 35 -48 216 -3 14 70 228 -230 -231 -232 -233 -235 -236 -237 -240 -241 -244 -245 -246 -247 -248 -249 -250 -252 -253 0 
-13 182 -3 14 70 228 -230 -231 -232 -233 -235 -236 -237 -240 -241 -244 -245 -246 -247 -248 -249 -250 -252 -253 0 
-89 213 -3 14 70 -90 92 142 167 172 228 -230 -231 -232 -233 -235 -236 -237 -240 -241 -244 -245 -246 -247 -248 -249 -250 -252 -253 0 
-31 -91 228 -230 -231 -232 -233 -235 -236 -237 -240 -241 -244 -245 -246 -247 -248 -249 -250 -252 -253 0 
-69 66 94 189 228 -230 -231 -232 -233 -235 -236 -237 -240 -241 -244 -245 -246 -247 -248 -249 -250 -252 -253 0 
-14 3 70 -15 228 -230 -231 -232 -233 -235 -236 -237 -240 -241 -244 -245 -246 -247 -248 -249 -250 -252 -253 0 
-70 3 14 -92 90 142 167 172 -93 103 114 144 171 207 -27 228 -230 -231 -232 -233 -235 -236 -237 -240 -241 -244 -245 -246 -247 -248 -249 -250 -252 -253 0 
-3 14 70 -48 216 228 -230 -231 -232 -233 -235 -236 -237 -240 -241 -244 -245 -246 -247 -248 -249 -250 -252 -253 0 
-3 14 70 -27 228 -230 -231 -232 -233 -235 -236 -237 -240 -241 -244 -245 -246 -247 -248 -249 -250 -252 -253 0 
-31 -70 3 14 -27 228 -230 -231 -232 -233 -235 -236 -237 -240 -241 -244 -245 -246 -247 -248 -249 -250 -252 -253 0 
-48 216 -94 66 69 189 230 -228 -231 -232 -233 -235 -236 -237 -240 -241 -244 -245 -246 -247 -248 -249 -250 -252 -253 0 
-48 216 -94 66 69 189 241 -228 -230 -231 -232 -233 -235 -236 -237 -240 -244 -245 -246 -247 -248 -249 -250 -252 -253 0 
-48 216 -94 66 69 189 235 -228 -230 -231 -232 -233 -236 -237 -240 -241 -244 -245 -246 -247 -248 -249 -250 -252 -253 0 
-95 44 60 101 130 205 228 -230 -231 -232 -233 -235 -236 -237 -240 -241 -244 -245 -246 -247 -248 -249 -250 -252 -253 0 
-96 228 -230 -231 -232 -233 -235 -236 -237 -240 -241 -244 -245 -246 -247 -248 -249 -250 -252 -253 0 
-97 21 50 135 136 138 228 -230 -231 -232 -233 -235 -236 -237 -240 -241 -244 -245 -246 -247 -248 -249 -250 -252 -253 0 
-98 23 223 228 -230 -231 -232 -233 -235 -236 -237 -240 -241 -244 -245 -246 -247 -248 -249 -250 -252 -253 0 
-99 -3 14 70 228 -230 -231 -232 -233 -235 -236 -237 -240 -241 -244 -245 -246 -247 -248 -249 -250 -252 -253 0 
-69 66 94 189 228 -230 -231 -232 -233 -235 -236 -237 -240 -241 -244 -245 -246 -247 -248 -249 -250 -252 -253 0 
-48 216 -91 228 -230 -231 -232 -233 -235 -236 -237 -240 -241 -244 -245 -246 -247 -248 -249 -250 -252 -253 0 
-100 -101 44 60 95 130 205 228 -230 -231 -232 -233 -235 -236 -237 -240 -241 -244 -245 -246 -247 -248 -249 -250 -252 -253 0 
-102 228 -230 -231 -232 -233 -235 -236 -237 -240 -241 -244 -245 -246 -247 -248 -249 -250 -252 -253 0 
-89 213 -3 14 70 228 -230 -231 -232 -233 -235 -236 -237 -240 -241 -244 -245 -246 -247 -248 -249 -250 -252 -253 0 
-3 14 70 -15 228 -230 -231 -232 -233 -235 -236 -237 -240 -241 -244 -245 -246 -247 -248 -249 -250 -252 -253 0 
-31 -70 3 14 -103 93 114 144 171 207 228 -230 -231 -232 -233 -235 -236 -237 -240 -241 -244 -245 -246 -247 -248 -249 -250 -252 -253 0 
-104 47 112 140 217 228 -230 -231 -232 -233 -235 -236 -237 -240 -241 -244 -245 -246 -247 -248 -249 -250 -252 -253 0 
-17 20 59 -105 -3 14 70 228 -230 -231 -232 -233 -235 -236 -237 -240 -241 -244 -245 -246 -247 -248 -249 -250 -252 -253 0 
-48 216 -106 109 -91 228 -230 -231 -232 -233 -235 -236 -237 -240 -241 -244 -245 -246 -247 -248 -249 -250 -252 -253 0 
-107 68 73 228 -230 -231 -232 -233 -235 -236 -237 -240 -241 -244 -245 -246 -247 -248 -249 -250 -252 -253 0 
-3 14 70 -90 92 142 167 172 228 -230 -231 -232 -233 -235 -236 -237 -240 -241 -244 -245 -246 -247 -248 -249 -250 -252 -253 0 
-31 -63 -108 16 71 146 147 148 203 209 226 228 -230 -231 -232 -233 -235 -236 -237 -240 -241 -244 -245 -246 -247 -248 -249 -250 -252 -253 0 
-17 20 59 -44 60 95 101 130 205 228 -230 -231 -232 -233 -235 -236 -237 -240 -241 -244 -245 -246 -247 -248 -249 -250 -252 -253 0 
-109 106 -91 228 -230 -231 -232 -233 -235 -236 -237 -240 -241 -244 -245 -246 -247 -248 -249 -250 -252 -253 0 
-110 40 194 228 -230 -231 -232 -233 -235 -236 -237 -240 -241 -244 -245 -246 -247 -248 -249 -250 -252 -253 0 
-111 34 53 64 152 228 -230 -231 -232 -233 -235 -236 -237 -240 -241 -244 -245 -246 -247 -248 -249 -250 -252 -253 0 
-112 47 104 140 217 228 -230 -231 -232 -233 -235 -236 -237 -240 -241 -244 -245 -246 -247 -248 -249 -250 -252 -253 0 
-94 66 69 189 228 -230 -231 -232 -233 -235 -236 -237 -240 -241 -244 -245 -246 -247 -248 -249 -250 -252 -253 0 
-113 10 39 43 150 -3 14 70 -90 92 142 167 172 228 -230 -231 -232 -233 -235 -236 -237 -240 -241 -244 -245 -246 -247 -248 -249 -250 -252 -253 0 
-31 -70 3 14 -114 93 103 144 171 207 228 -230 -231 -232 -233 -235 -236 -237 -240 -241 -244 -245 -246 -247 -248 -249 -250 -252 -253 0 
-115 158 163 215 228 -230 -231 -232 -233 -235 -236 -237 -240 -241 -244 -245 -246 -247 -248 -249 -250 -252 -253 0 
-106 109 -91 -69 66 94 189 228 -230 -231 -232 -233 -235 -236 -237 -240 -241 -244 -245 -246 -247 -248 -249 -250 -252 -253 0 
-116 121 228 -230 -231 -232 -233 -235 -236 -237 -240 -241 -244 -245 -246 -247 -248 -249 -250 -252 -253 0 
-38 -3 14 70 228 -230 -231 -232 -233 -235 -236 -237 -240 -241 -244 -245 -246 -247 -248 -249 -250 -252 -253 0 
-117 156 228 -230 -231 -232 -233 -235 -236 -237 -240 -241 -244 -245 -246 -247 -248 -249 -250 -252 -253 0 
-72 28 175 -31 -91 228 -230 -231 -232 -233 -235 -236 -237 -240 -241 -244 -245 -246 -247 -248 -249 -250 -252 -253 0 
-118 -91 -3 14 70 228 -230 -231 -232 -233 -235 -236 -237 -240 -241 -244 -245 -246 -247 -248 -249 -250 -252 -253 0 
-119 228 -230 -231 -232 -233 -235 -236 -237 -240 -241 -244 -245 -246 -247 -248 -249 -250 -252 -253 0 
-13 182 -31 -3 14 70 228 -230 -231 -232 -233 -235 -236 -237 -240 -241 -244 -245 -246 -247 -248 -249 -250 -252 -253 0 
-48 216 -3 14 70 -15 240 -228 -230 -231 -232 -233 -235 -236 -237 -241 -244 -245 -246 -247 -248 -249 -250 -252 -253 0 
-120 -3 14 70 -91 228 -230 -231 -232 -233 -235 -236 -237 -240 -241 -244 -245 -246 -247 -248 -249 -250 -252 -253 0 
-121 116 228 -230 -231 -232 -233 -235 -236 -237 -240 -241 -244 -245 -246 -247 -248 -249 -250 -252 -253 0 
-122 -69 66 94 189 228 -230 -231 -232 -233 -235 -236 -237 -240 -241 -244 -245 -246 -247 -248 -249 -250 -252 -253 0 
-31 -70 3 14 228 -230 -231 -232 -233 -235 -236 -237 -240 -241 -244 -245 -246 -247 -248 -249 -250 -252 -253 0 
-123 29 -3 14 70 228 -230 -231 -232 -233 -235 -236 -237 -240 -241 -244 -245 -246 -247 -248 -249 -250 -252 -253 0 
-124 -48 216 -91 228 -230 -231 -232 -233 -235 -236 -237 -240 -241 -244 -245 -246 -247 -248 -249 -250 -252 -253 0 
-125 65 -48 216 -91 228 -230 -231 -232 -233 -235 -236 -237 -240 -241 -244 -245 -246 -247 -248 -249 -250 -252 -253 0 
-126 143 -3 14 70 228 -230 -231 -232 -233 -235 -236 -237 -240 -241 -244 -245 -246 -247 -248 -249 -250 -252 -253 0 
-127 19 25 37 51 52 75 154 177 178 181 212 242 -229 -243 -251 0 
-128 -25 19 37 51 52 75 127 154 177 178 181 212 243 -229 -242 -251 0 
-128 -25 19 37 51 52 75 127 154 177 178 181 212 228 -230 -231 -232 -233 -235 -236 -237 -240 -241 -244 -245 -246 -247 -248 -249 -250 -252 -253 0 
-129 45 151 155 186 244 -228 -230 -231 -232 -233 -235 -236 -237 -240 -241 -245 -246 -247 -248 -249 -250 -252 -253 0 
-70 3 14 228 -230 -231 -232 -233 -235 -236 -237 -240 -241 -244 -245 -246 -247 -248 -249 -250 -252 -253 0 
-25 19 37 51 52 75 127 154 177 178 181 212 -3 14 70 228 -230 -231 -232 -233 -235 -236 -237 -240 -241 -244 -245 -246 -247 -248 -249 -250 -252 -253 0 
-48 216 228 -230 -231 -232 -233 -235 -236 -237 -240 -241 -244 -245 -246 -247 -248 -249 -250 -252 -253 0 
-72 28 175 -3 14 70 228 -230 -231 -232 -233 -235 -236 -237 -240 -241 -244 -245 -246 -247 -248 -249 -250 -252 -253 0 
-130 44 60 95 101 205 228 -230 -231 -232 -233 -235 -236 -237 -240 -241 -244 -245 -246 -247 -248 -249 -250 -252 -253 0 
-131 46 78 83 86 228 -230 -231 -232 -233 -235 -236 -237 -240 -241 -244 -245 -246 -247 -248 -249 -250 -252 -253 0 
-61 35 -3 14 70 228 -230 -231 -232 -233 -235 -236 -237 -240 -241 -244 -245 -246 -247 -248 -249 -250 -252 -253 0 
-132 228 -230 -231 -232 -233 -235 -236 -237 -240 -241 -244 -245 -246 -247 -248 -249 -250 -252 -253 0 
-74 26 30 -90 92 142 167 172 228 -230 -231 -232 -233 -235 -236 -237 -240 -241 -244 -245 -246 -247 -248 -249 -250 -252 -253 0 
-69 66 94 189 228 -230 -231 -232 -233 -235 -236 -237 -240 -241 -244 -245 -246 -247 -248 -249 -250 -252 -253 0 
-13 182 -133 228 -230 -231 -232 -233 -235 -236 -237 -240 -241 -244 -245 -246 -247 -248 -249 -250 -252 -253 0 
-67 214 -134 -49 2 8 79 228 -230 -231 -232 -233 -235 -236 -237 -240 -241 -244 -245 -246 -247 -248 -249 -250 -252 -253 0 
-20 17 59 -26 30 74 -135 21 50 97 136 138 228 -230 -231 -232 -233 -235 -236 -237 -240 -241 -244 -245 -246 -247 -248 -249 -250 -252 -253 0 
-134 -49 2 8 79 -136 21 50 97 135 138 228 -230 -231 -232 -233 -235 -236 -237 -240 -241 -244 -245 -246 -247 -248 -249 -250 -252 -253 0 
-137 149 -138 21 50 97 135 136 228 -230 -231 -232 -233 -235 -236 -237 -240 -241 -244 -245 -246 -247 -248 -249 -250 -252 -253 0 
-43 10 39 113 150 -44 60 95 101 130 205 228 -230 -231 -232 -233 -235 -236 -237 -240 -241 -244 -245 -246 -247 -248 -249 -250 -252 -253 0 
-139 36 80 -20 17 59 228 -230 -231 -232 -233 -235 -236 -237 -240 -241 -244 -245 -246 -247 -248 -249 -250 -252 -253 0 
-139 36 80 228 -230 -231 -232 -233 -235 -236 -237 -240 -241 -244 -245 -246 -247 -248 -249 -250 -252 -253 0 
-49 2 8 79 -131 46 78 83 86 228 -230 -231 -232 -233 -235 -236 -237 -240 -241 -244 -245 -246 -247 -248 -249 -250 -252 -253 0 
-42 -6 -37 19 25 51 52 75 127 154 177 178 181 212 -140 47 104 112 217 228 -230 -231 -232 -233 -235 -236 -237 -240 -241 -244 -245 -246 -247 -248 -249 -250 -252 -253 0 
-141 -3 14 70 228 -230 -231 -232 -233 -235 -236 -237 -240 -241 -244 -245 -246 -247 -248 -249 -250 -252 -253 0 
-14 3 70 -142 90 92 167 172 -143 126 -144 93 103 114 171 207 238 239 -234 0 
-145 174 -13 182 -3 14 70 228 -230 -231 -232 -233 -235 -236 -237 -240 -241 -244 -245 -246 -247 -248 -249 -250 -252 -253 0 
-3 14 70 245 -228 -230 -231 -232 -233 -235 -236 -237 -240 -241 -244 -246 -247 -248 -249 -250 -252 -253 0 
-32 -70 3 14 -48 216 228 -230 -231 -232 -233 -235 -236 -237 -240 -241 -244 -245 -246 -247 -248 -249 -250 -252 -253 0 
-48 216 -3 14 70 -15 -146 16 71 108 147 148 203 209 226 241 -228 -230 -231 -232 -233 -235 -236 -237 -240 -244 -245 -246 -247 -248 -249 -250 -252 -253 0 
-48 216 -3 14 70 -15 -71 16 108 146 147 148 203 209 226 235 -228 -230 -231 -232 -233 -236 -237 -240 -241 -244 -245 -246 -247 -248 -249 -250 -252 -253 0 
-48 216 -3 14 70 -15 -147 16 71 108 146 148 203 209 226 246 -228 -230 -231 -232 -233 -235 -236 -237 -240 -241 -244 -245 -247 -248 -249 -250 -252 -253 0 
-89 213 -70 3 14 -148 16 71 108 146 147 203 209 226 228 -230 -231 -232 -233 -235 -236 -237 -240 -241 -244 -245 -246 -247 -248 -249 -250 -252 -253 0 
-149 137 -3 14 70 228 -230 -231 -232 -233 -235 -236 -237 -240 -241 -244 -245 -246 -247 -248 -249 -250 -252 -253 0 
-150 10 39 43 113 -123 29 228 -230 -231 -232 -233 -235 -236 -237 -240 -241 -244 -245 -246 -247 -248 -249 -250 -252 -253 0 
-151 45 129 155 186 -152 34 53 64 111 228 -230 -231 -232 -233 -235 -236 -237 -240 -241 -244 -245 -246 -247 -248 -249 -250 -252 -253 0 
-61 35 -109 106 -3 14 70 228 -230 -231 -232 -233 -235 -236 -237 -240 -241 -244 -245 -246 -247 -248 -249 -250 -252 -253 0 
-139 36 80 -19 25 37 51 52 75 127 154 177 178 181 212 -32 -3 14 70 228 -230 -231 -232 -233 -235 -236 -237 -240 -241 -244 -245 -246 -247 -248 -249 -250 -252 -253 0 
-13 182 -26 30 74 228 -230 -231 -232 -233 -235 -236 -237 -240 -241 -244 -245 -246 -247 -248 -249 -250 -252 -253 0 
-63 -153 191 -3 14 70 228 -230 -231 -232 -233 -235 -236 -237 -240 -241 -244 -245 -246 -247 -248 -249 -250 -252 -253 0 
-30 26 74 -154 19 25 37 51 52 75 127 177 178 181 212 -123 29 228 -230 -231 -232 -233 -235 -236 -237 -240 -241 -244 -245 -246 -247 -248 -249 -250 -252 -253 0 
-32 -3 14 70 228 -230 -231 -232 -233 -235 -236 -237 -240 -241 -244 -245 -246 -247 -248 -249 -250 -252 -253 0 
-2 8 49 79 228 -230 -231 -232 -233 -235 -236 -237 -240 -241 -244 -245 -246 -247 -248 -249 -250 -252 -253 0 
-42 -6 -155 45 129 151 186 -156 117 228 -230 -231 -232 -233 -235 -236 -237 -240 -241 -244 -245 -246 -247 -248 -249 -250 -252 -253 0 
-157 -31 -3 14 70 228 -230 -231 -232 -233 -235 -236 -237 -240 -241 -244 -245 -246 -247 -248 -249 -250 -252 -253 0 
-3 14 70 247 -228 -230 -231 -232 -233 -235 -236 -237 -240 -241 -244 -245 -246 -248 -249 -250 -252 -253 0 
-158 115 163 215 232 -228 -230 -231 -233 -235 -236 -237 -240 -241 -244 -245 -246 -247 -248 -249 -250 -252 -253 0 
-159 4 77 187 232 -228 -230 -231 -233 -235 -236 -237 -240 -241 -244 -245 -246 -247 -248 -249 -250 -252 -253 0 
-160 232 -228 -230 -231 -233 -235 -236 -237 -240 -241 -244 -245 -246 -247 -248 -249 -250 -252 -253 0 
-161 81 84 168 211 228 -230 -231 -232 -233 -235 -236 -237 -240 -241 -244 -245 -246 -247 -248 -249 -250 -252 -253 0 
-32 -48 216 228 -230 -231 -232 -233 -235 -236 -237 -240 -241 -244 -245 -246 -247 -248 -249 -250 -252 -253 0 
-162 228 -230 -231 -232 -233 -235 -236 -237 -240 -241 -244 -245 -246 -247 -248 -249 -250 -252 -253 0 
-101 44 60 95 130 205 228 -230 -231 -232 -233 -235 -236 -237 -240 -241 -244 -245 -246 -247 -248 -249 -250 -252 -253 0 
-158 115 163 215 232 -228 -230 -231 -233 -235 -236 -237 -240 -241 -244 -245 -246 -247 -248 -249 -250 -252 -253 0 
-35 61 -30 26 74 -31 -163 115 158 215 228 -230 -231 -232 -233 -235 -236 -237 -240 -241 -244 -245 -246 -247 -248 -249 -250 -252 -253 0 
-75 19 25 37 51 52 127 154 177 178 181 212 -164 55 198 228 -230 -231 -232 -233 -235 -236 -237 -240 -241 -244 -245 -246 -247 -248 -249 -250 -252 -253 0 
-165 9 11 12 62 76 199 228 -230 -231 -232 -233 -235 -236 -237 -240 -241 -244 -245 -246 -247 -248 -249 -250 -252 -253 0 
-166 228 -230 -231 -232 -233 -235 -236 -237 -240 -241 -244 -245 -246 -247 -248 -249 -250 -252 -253 0 
-139 36 80 -167 90 92 142 172 228 -230 -231 -232 -233 -235 -236 -237 -240 -241 -244 -245 -246 -247 -248 -249 -250 -252 -253 0 
-26 30 74 -90 92 142 167 172 228 -230 -231 -232 -233 -235 -236 -237 -240 -241 -244 -245 -246 -247 -248 -249 -250 -252 -253 0 
-78 46 83 86 131 -31 228 -230 -231 -232 -233 -235 -236 -237 -240 -241 -244 -245 -246 -247 -248 -249 -250 -252 -253 0 
-168 81 84 161 211 -70 3 14 228 -230 -231 -232 -233 -235 -236 -237 -240 -241 -244 -245 -246 -247 -248 -249 -250 -252 -253 0 
-169 -170 -3 14 70 236 -228 -230 -231 -232 -233 -235 -237 -240 -241 -244 -245 -246 -247 -248 -249 -250 -252 -253 0 
-31 -72 28 175 -3 14 70 -171 93 103 114 144 207 228 -230 -231 -232 -233 -235 -236 -237 -240 -241 -244 -245 -246 -247 -248 -249 -250 -252 -253 0 
-14 3 70 -172 90 92 142 167 238 239 -234 0 
-173 -14 3 70 -164 55 198 228 -230 -231 -232 -233 -235 -236 -237 -240 -241 -244 -245 -246 -247 -248 -249 -250 -252 -253 0 
-48 216 -88 240 -228 -230 -231 -232 -233 -235 -236 -237 -241 -244 -245 -246 -247 -248 -249 -250 -252 -253 0 
-48 216 -94 66 69 189 246 -228 -230 -231 -232 -233 -235 -236 -237 -240 -241 -244 -245 -247 -248 -249 -250 -252 -253 0 
-66 69 94 189 232 -228 -230 -231 -233 -235 -236 -237 -240 -241 -244 -245 -246 -247 -248 -249 -250 -252 -253 0 
-48 216 -94 66 69 189 230 -228 -231 -232 -233 -235 -236 -237 -240 -241 -244 -245 -246 -247 -248 -249 -250 -252 -253 0 
-48 216 -94 66 69 189 235 -228 -230 -231 -232 -233 -236 -237 -240 -241 -244 -245 -246 -247 -248 -249 -250 -252 -253 0 
-94 66 69 189 228 -230 -231 -232 -233 -235 -236 -237 -240 -241 -244 -245 -246 -247 -248 -249 -250 -252 -253 0 
-48 216 -94 66 69 189 245 -228 -230 -231 -232 -233 -235 -236 -237 -240 -241 -244 -246 -247 -248 -249 -250 -252 -253 0 
-48 216 -94 66 69 189 248 -228 -230 -231 -232 -233 -235 -236 -237 -240 -241 -244 -245 -246 -247 -249 -250 -252 -253 0 
-48 216 -94 66 69 189 241 -228 -230 -231 -232 -233 -235 -236 -237 -240 -244 -245 -246 -247 -248 -249 -250 -252 -253 0 
-48 216 -94 66 69 189 237 -228 -230 -231 -232 -233 -235 -236 -240 -241 -244 -245 -246 -247 -248 -249 -250 -252 -253 0 
-48 216 -94 66 69 189 234 -239 0 
-48 216 -69 66 94 189 241 -228 -230 -231 -232 -233 -235 -236 -237 -240 -244 -245 -246 -247 -248 -249 -250 -252 -253 0 
-48 216 -3 14 70 -15 -71 16 108 146 147 148 203 209 226 234 -239 0 
-48 216 -69 66 94 189 246 -228 -230 -231 -232 -233 -235 -236 -237 -240 -241 -244 -245 -247 -248 -249 -250 -252 -253 0 
-48 216 -69 66 94 189 230 -228 -231 -232 -233 -235 -236 -237 -240 -241 -244 -245 -246 -247 -248 -249 -250 -252 -253 0 
-94 66 69 189 228 -230 -231 -232 -233 -235 -236 -237 -240 -241 -244 -245 -246 -247 -248 -249 -250 -252 -253 0 
-4 77 159 187 -82 228 -230 -231 -232 -233 -235 -236 -237 -240 -241 -244 -245 -246 -247 -248 -249 -250 -252 -253 0 
-61 35 -12 9 11 62 76 165 199 228 -230 -231 -232 -233 -235 -236 -237 -240 -241 -244 -245 -246 -247 -248 -249 -250 -252 -253 0 
-174 145 -3 14 70 228 -230 -231 -232 -233 -235 -236 -237 -240 -241 -244 -245 -246 -247 -248 -249 -250 -252 -253 0 
-82 -175 28 72 236 -228 -230 -231 -232 -233 -235 -237 -240 -241 -244 -245 -246 -247 -248 -249 -250 -252 -253 0 
-176 57 85 87 222 -177 19 25 37 51 52 75 127 154 178 181 212 236 -228 -230 -231 -232 -233 -235 -237 -240 -241 -244 -245 -246 -247 -248 -249 -250 -252 -253 0 
-176 57 85 87 222 -178 19 25 37 51 52 75 127 154 177 181 212 236 -228 -230 -231 -232 -233 -235 -237 -240 -241 -244 -245 -246 -247 -248 -249 -250 -252 -253 0 
-179 -180 190 193 236 -228 -230 -231 -232 -233 -235 -237 -240 -241 -244 -245 -246 -247 -248 -249 -250 -252 -253 0 
-141 -179 236 -228 -230 -231 -232 -233 -235 -237 -240 -241 -244 -245 -246 -247 -248 -249 -250 -252 -253 0 
-166 -177 19 25 37 51 52 75 127 154 178 181 212 236 -228 -230 -231 -232 -233 -235 -237 -240 -241 -244 -245 -246 -247 -248 -249 -250 -252 -253 0 
-31 -181 19 25 37 51 52 75 127 154 177 178 212 236 -228 -230 -231 -232 -233 -235 -237 -240 -241 -244 -245 -246 -247 -248 -249 -250 -252 -253 0 
-182 13 -175 28 72 236 -228 -230 -231 -232 -233 -235 -237 -240 -241 -244 -245 -246 -247 -248 -249 -250 -252 -253 0 
-183 -184 -185 228 -230 -231 -232 -233 -235 -236 -237 -240 -241 -244 -245 -246 -247 -248 -249 -250 -252 -253 0 
-183 -4 77 159 187 -186 45 129 151 155 228 -230 -231 -232 -233 -235 -236 -237 -240 -241 -244 -245 -246 -247 -248 -249 -250 -252 -253 0 
-20 17 59 -177 19 25 37 51 52 75 127 154 178 181 212 236 -228 -230 -231 -232 -233 -235 -237 -240 -241 -244 -245 -246 -247 -248 -249 -250 -252 -253 0 
-82 -181 19 25 37 51 52 75 127 154 177 178 212 236 -228 -230 -231 -232 -233 -235 -237 -240 -241 -244 -245 -246 -247 -248 -249 -250 -252 -253 0 
-67 214 -187 4 77 159 236 -228 -230 -231 -232 -233 -235 -237 -240 -241 -244 -245 -246 -247 -248 -249 -250 -252 -253 0 
-62 9 11 12 76 165 199 -3 14 70 -15 228 -230 -231 -232 -233 -235 -236 -237 -240 -241 -244 -245 -246 -247 -248 -249 -250 -252 -253 0 
-26 30 74 -15 228 -230 -231 -232 -233 -235 -236 -237 -240 -241 -244 -245 -246 -247 -248 -249 -250 -252 -253 0 
-188 228 -230 -231 -232 -233 -235 -236 -237 -240 -241 -244 -245 -246 -247 -248 -249 -250 -252 -253 0 
-3 14 70 -171 93 103 114 144 207 238 239 -234 0 
-189 66 69 94 228 -230 -231 -232 -233 -235 -236 -237 -240 -241 -244 -245 -246 -247 -248 -249 -250 -252 -253 0 
-32 -70 3 14 -27 228 -230 -231 -232 -233 -235 -236 -237 -240 -241 -244 -245 -246 -247 -248 -249 -250 -252 -253 0 
-89 213 228 -230 -231 -232 -233 -235 -236 -237 -240 -241 -244 -245 -246 -247 -248 -249 -250 -252 -253 0 
-190 180 193 232 -228 -230 -231 -233 -235 -236 -237 -240 -241 -244 -245 -246 -247 -248 -249 -250 -252 -253 0 
-191 153 228 -230 -231 -232 -233 -235 -236 -237 -240 -241 -244 -245 -246 -247 -248 -249 -250 -252 -253 0 
-13 182 -14 3 70 228 -230 -231 -232 -233 -235 -236 -237 -240 -241 -244 -245 -246 -247 -248 -249 -250 -252 -253 0 
-192 1 228 -230 -231 -232 -233 -235 -236 -237 -240 -241 -244 -245 -246 -247 -248 -249 -250 -252 -253 0 
-193 180 190 249 -228 -230 -231 -232 -233 -235 -236 -237 -240 -241 -244 -245 -246 -247 -248 -250 -252 -253 0 
-194 40 110 228 -230 -231 -232 -233 -235 -236 -237 -240 -241 -244 -245 -246 -247 -248 -249 -250 -252 -253 0 
-195 228 -230 -231 -232 -233 -235 -236 -237 -240 -241 -244 -245 -246 -247 -248 -249 -250 -252 -253 0 
-133 -69 66 94 189 228 -230 -231 -232 -233 -235 -236 -237 -240 -241 -244 -245 -246 -247 -248 -249 -250 -252 -253 0 
-143 126 -3 14 70 -90 92 142 167 172 228 -230 -231 -232 -233 -235 -236 -237 -240 -241 -244 -245 -246 -247 -248 -249 -250 -252 -253 0 
-196 -3 14 70 228 -230 -231 -232 -233 -235 -236 -237 -240 -241 -244 -245 -246 -247 -248 -249 -250 -252 -253 0 
-197 -70 3 14 228 -230 -231 -232 -233 -235 -236 -237 -240 -241 -244 -245 -246 -247 -248 -249 -250 -252 -253 0 
-173 -66 69 94 189 228 -230 -231 -232 -233 -235 -236 -237 -240 -241 -244 -245 -246 -247 -248 -249 -250 -252 -253 0 
-198 55 164 228 -230 -231 -232 -233 -235 -236 -237 -240 -241 -244 -245 -246 -247 -248 -249 -250 -252 -253 0 
-199 9 11 12 62 76 165 248 -228 -230 -231 -232 -233 -235 -236 -237 -240 -241 -244 -245 -246 -247 -249 -250 -252 -253 0 
-154 19 25 37 51 52 75 127 177 178 181 212 228 -230 -231 -232 -233 -235 -236 -237 -240 -241 -244 -245 -246 -247 -248 -249 -250 -252 -253 0 
-166 -6 -83 46 78 86 131 228 -230 -231 -232 -233 -235 -236 -237 -240 -241 -244 -245 -246 -247 -248 -249 -250 -252 -253 0 
-91 -15 -3 14 70 250 -228 -230 -231 -232 -233 -235 -236 -237 -240 -241 -244 -245 -246 -247 -248 -249 -252 -253 0 
-13 182 -14 3 70 -27 228 -230 -231 -232 -233 -235 -236 -237 -240 -241 -244 -245 -246 -247 -248 -249 -250 -252 -253 0 
-48 216 231 -228 -230 -232 -233 -235 -236 -237 -240 -241 -244 -245 -246 -247 -248 -249 -250 -252 -253 0 
-48 216 230 -228 -231 -232 -233 -235 -236 -237 -240 -241 -244 -245 -246 -247 -248 -249 -250 -252 -253 0 
-116 121 228 -230 -231 -232 -233 -235 -236 -237 -240 -241 -244 -245 -246 -247 -248 -249 -250 -252 -253 0 
-61 35 -48 216 -3 14 70 -5 228 -230 -231 -232 -233 -235 -236 -237 -240 -241 -244 -245 -246 -247 -248 -249 -250 -252 -253 0 
-14 3 70 -27 -5 228 -230 -231 -232 -233 -235 -236 -237 -240 -241 -244 -245 -246 -247 -248 -249 -250 -252 -253 0 
-14 3 70 238 239 -234 0 
-200 251 -229 -242 -243 0 
-3 14 70 -5 -171 93 103 114 144 207 238 239 -234 0 
-14 3 70 -91 -171 93 103 114 144 207 -201 -202 228 -230 -231 -232 -233 -235 -236 -237 -240 -241 -244 -245 -246 -247 -248 -249 -250 -252 -253 0 
-197 -3 14 70 228 -230 -231 -232 -233 -235 -236 -237 -240 -241 -244 -245 -246 -247 -248 -249 -250 -252 -253 0 
-3 14 70 -203 16 71 108 146 147 148 209 226 228 -230 -231 -232 -233 -235 -236 -237 -240 -241 -244 -245 -246 -247 -248 -249 -250 -252 -253 0 
-48 216 -66 69 94 189 228 -230 -231 -232 -233 -235 -236 -237 -240 -241 -244 -245 -246 -247 -248 -249 -250 -252 -253 0 
-31 -189 66 69 94 228 -230 -231 -232 -233 -235 -236 -237 -240 -241 -244 -245 -246 -247 -248 -249 -250 -252 -253 0 
-66 69 94 189 252 -228 -230 -231 -232 -233 -235 -236 -237 -240 -241 -244 -245 -246 -247 -248 -249 -250 -253 0 
-112 47 104 140 217 228 -230 -231 -232 -233 -235 -236 -237 -240 -241 -244 -245 -246 -247 -248 -249 -250 -252 -253 0 
-204 206 228 -230 -231 -232 -233 -235 -236 -237 -240 -241 -244 -245 -246 -247 -248 -249 -250 -252 -253 0 
-205 44 60 95 101 130 228 -230 -231 -232 -233 -235 -236 -237 -240 -241 -244 -245 -246 -247 -248 -249 -250 -252 -253 0 
-101 44 60 95 130 205 228 -230 -231 -232 -233 -235 -236 -237 -240 -241 -244 -245 -246 -247 -248 -249 -250 -252 -253 0 
-55 164 198 228 -230 -231 -232 -233 -235 -236 -237 -240 -241 -244 -245 -246 -247 -248 -249 -250 -252 -253 0 
-98 23 223 228 -230 -231 -232 -233 -235 -236 -237 -240 -241 -244 -245 -246 -247 -248 -249 -250 -252 -253 0 
-96 228 -230 -231 -232 -233 -235 -236 -237 -240 -241 -244 -245 -246 -247 -248 -249 -250 -252 -253 0 
-206 204 228 -230 -231 -232 -233 -235 -236 -237 -240 -241 -244 -245 -246 -247 -248 -249 -250 -252 -253 0 
-31 -70 3 14 -207 93 103 114 144 171 -202 228 -230 -231 -232 -233 -235 -236 -237 -240 -241 -244 -245 -246 -247 -248 -249 -250 -252 -253 0 
-94 66 69 189 228 -230 -231 -232 -233 -235 -236 -237 -240 -241 -244 -245 -246 -247 -248 -249 -250 -252 -253 0 
-204 206 228 -230 -231 -232 -233 -235 -236 -237 -240 -241 -244 -245 -246 -247 -248 -249 -250 -252 -253 0 
-208 -94 66 69 189 228 -230 -231 -232 -233 -235 -236 -237 -240 -241 -244 -245 -246 -247 -248 -249 -250 -252 -253 0 
-196 -3 14 70 -90 92 142 167 172 228 -230 -231 -232 -233 -235 -236 -237 -240 -241 -244 -245 -246 -247 -248 -249 -250 -252 -253 0 
-196 -70 3 14 -209 16 71 108 146 147 148 203 226 228 -230 -231 -232 -233 -235 -236 -237 -240 -241 -244 -245 -246 -247 -248 -249 -250 -252 -253 0 
-210 -3 14 70 228 -230 -231 -232 -233 -235 -236 -237 -240 -241 -244 -245 -246 -247 -248 -249 -250 -252 -253 0 
-94 66 69 189 253 -228 -230 -231 -232 -233 -235 -236 -237 -240 -241 -244 -245 -246 -247 -248 -249 -250 -252 0 
-173 -14 3 70 -143 126 228 -230 -231 -232 -233 -235 -236 -237 -240 -241 -244 -245 -246 -247 -248 -249 -250 -252 -253 0 
-197 -3 14 70 -90 92 142 167 172 228 -230 -231 -232 -233 -235 -236 -237 -240 -241 -244 -245 -246 -247 -248 -249 -250 -252 -253 0 
-94 66 69 189 228 -230 -231 -232 -233 -235 -236 -237 -240 -241 -244 -245 -246 -247 -248 -249 -250 -252 -253 0 
-196 -91 -69 66 94 189 228 -230 -231 -232 -233 -235 -236 -237 -240 -241 -244 -245 -246 -247 -248 -249 -250 -252 -253 0 
-31 -211 81 84 161 168 -3 14 70 228 -230 -231 -232 -233 -235 -236 -237 -240 -241 -244 -245 -246 -247 -248 -249 -250 -252 -253 0 
-4 77 159 187 228 -230 -231 -232 -233 -235 -236 -237 -240 -241 -244 -245 -246 -247 -248 -249 -250 -252 -253 0 
-212 19 25 37 51 52 75 127 154 177 178 181 228 -230 -231 -232 -233 -235 -236 -237 -240 -241 -244 -245 -246 -247 -248 -249 -250 -252 -253 0 
-4 77 159 187 -30 26 74 -5 228 -230 -231 -232 -233 -235 -236 -237 -240 -241 -244 -245 -246 -247 -248 -249 -250 -252 -253 0 
-166 -4 77 159 187 -5 228 -230 -231 -232 -233 -235 -236 -237 -240 -241 -244 -245 -246 -247 -248 -249 -250 -252 -253 0 
-94 66 69 189 228 -230 -231 -232 -233 -235 -236 -237 -240 -241 -244 -245 -246 -247 -248 -249 -250 -252 -253 0 
-182 13 -3 14 70 -90 92 142 167 172 228 -230 -231 -232 -233 -235 -236 -237 -240 -241 -244 -245 -246 -247 -248 -249 -250 -252 -253 0 
-2 8 49 79 -94 66 69 189 228 -230 -231 -232 -233 -235 -236 -237 -240 -241 -244 -245 -246 -247 -248 -249 -250 -252 -253 0 
-62 9 11 12 76 165 199 228 -230 -231 -232 -233 -235 -236 -237 -240 -241 -244 -245 -246 -247 -248 -249 -250 -252 -253 0 
-195 -69 66 94 189 228 -230 -231 -232 -233 -235 -236 -237 -240 -241 -244 -245 -246 -247 -248 -249 -250 -252 -253 0 
-213 89 232 -228 -230 -231 -233 -235 -236 -237 -240 -241 -244 -245 -246 -247 -248 -249 -250 -252 -253 0 
-159 4 77 187 -214 67 232 -228 -230 -231 -233 -235 -236 -237 -240 -241 -244 -245 -246 -247 -248 -249 -250 -252 -253 0 
-215 115 158 163 228 -230 -231 -232 -233 -235 -236 -237 -240 -241 -244 -245 -246 -247 -248 -249 -250 -252 -253 0 
-216 48 232 -228 -230 -231 -233 -235 -236 -237 -240 -241 -244 -245 -246 -247 -248 -249 -250 -252 -253 0 
-32 228 -230 -231 -232 -233 -235 -236 -237 -240 -241 -244 -245 -246 -247 -248 -249 -250 -252 -253 0 
-53 34 64 111 152 228 -230 -231 -232 -233 -235 -236 -237 -240 -241 -244 -245 -246 -247 -248 -249 -250 -252 -253 0 
-217 47 104 112 140 228 -230 -231 -232 -233 -235 -236 -237 -240 -241 -244 -245 -246 -247 -248 -249 -250 -252 -253 0 
-205 44 60 95 101 130 228 -230 -231 -232 -233 -235 -236 -237 -240 -241 -244 -245 -246 -247 -248 -249 -250 -252 -253 0 
-218 -3 14 70 228 -230 -231 -232 -233 -235 -236 -237 -240 -241 -244 -245 -246 -247 -248 -249 -250 -252 -253 0 
-39 10 43 113 150 -219 228 -230 -231 -232 -233 -235 -236 -237 -240 -241 -244 -245 -246 -247 -248 -249 -250 -252 -253 0 
-220 -164 55 198 228 -230 -231 -232 -233 -235 -236 -237 -240 -241 -244 -245 -246 -247 -248 -249 -250 -252 -253 0 
-221 228 -230 -231 -232 -233 -235 -236 -237 -240 -241 -244 -245 -246 -247 -248 -249 -250 -252 -253 0 
-222 57 85 87 176 228 -230 -231 -232 -233 -235 -236 -237 -240 -241 -244 -245 -246 -247 -248 -249 -250 -252 -253 0 
-26 30 74 -27 228 -230 -231 -232 -233 -235 -236 -237 -240 -241 -244 -245 -246 -247 -248 -249 -250 -252 -253 0 
-223 23 98 228 -230 -231 -232 -233 -235 -236 -237 -240 -241 -244 -245 -246 -247 -248 -249 -250 -252 -253 0 
-173 -94 66 69 189 228 -230 -231 -232 -233 -235 -236 -237 -240 -241 -244 -245 -246 -247 -248 -249 -250 -252 -253 0 
-205 44 60 95 101 130 228 -230 -231 -232 -233 -235 -236 -237 -240 -241 -244 -245 -246 -247 -248 -249 -250 -252 -253 0 
-164 55 198 228 -230 -231 -232 -233 -235 -236 -237 -240 -241 -244 -245 -246 -247 -248 -249 -250 -252 -253 0 
-224 228 -230 -231 -232 -233 -235 -236 -237 -240 -241 -244 -245 -246 -247 -248 -249 -250 -252 -253 0 
-101 44 60 95 130 205 228 -230 -231 -232 -233 -235 -236 -237 -240 -241 -244 -245 -246 -247 -248 -249 -250 -252 -253 0 
-205 44 60 95 101 130 228 -230 -231 -232 -233 -235 -236 -237 -240 -241 -244 -245 -246 -247 -248 -249 -250 -252 -253 0 
-3 14 70 -91 -90 92 142 167 172 -225 228 -230 -231 -232 -233 -235 -236 -237 -240 -241 -244 -245 -246 -247 -248 -249 -250 -252 -253 0 
-196 -91 -66 69 94 189 228 -230 -231 -232 -233 -235 -236 -237 -240 -241 -244 -245 -246 -247 -248 -249 -250 -252 -253 0 
-143 126 -3 14 70 -226 16 71 108 146 147 148 203 209 228 -230 -231 -232 -233 -235 -236 -237 -240 -241 -244 -245 -246 -247 -248 -249 -250 -252 -253 0 
-104 47 112 140 217 228 -230 -231 -232 -233 -235 -236 -237 -240 -241 -244 -245 -246 -247 -248 -249 -250 -252 -253 0 
-112 47 104 140 217 228 -230 -231 -232 -233 -235 -236 -237 -240 -241 -244 -245 -246 -247 -248 -249 -250 -252 -253 0 
-62 9 11 12 76 165 199 -3 14 70 -27 228 -230 -231 -232 -233 -235 -236 -237 -240 -241 -244 -245 -246 -247 -248 -249 -250 -252 -253 0 
-227 -3 14 70 -106 109 -91 228 -230 -231 -232 -233 -235 -236 -237 -240 -241 -244 -245 -246 -247 -248 -249 -250 -252 -253 0 
